sing20210304.12
TTAA 54121 48698
99008 29456 05514 00092 28450 05011 92779 21810 03012
85512 18856 05009 70156 10056 18504 50587 05759 10011
40759 15735 10014 30970 30541 10530 25097 41519 10528
20244 53956 09034 15422 68762 10061 10659 76363 29506
88127 76156 09574
77125 09578 41674=
TTCC 54127 48698
70864 76564 28025
88859 79961 11028
77999=
TTDD 5412/ 48698
11859 79961 22790 74965 33730 77763 44691 75165 55578
78162 66504 67372
21212 11966 35001 22931 10012 33865 10529 44796 20524
55755 22523 66714 28021 77629 27023 88551 31010 99504
16508=
